3765741
210,45,94,40,189,167,166,199,198,66,125,197,9,200,15,188,143,144,12,29,175,193,13,184,146,30,140,92,11,91,212,155,117,42,98,99,229,205,194,130,181,17,215,118,217,192,97,225,226,41,176,137,109,164,86,33,150,103,28,47,46,128,87,183,211,178,39,77,132,14,37,54,160,182,228,191,101,107,111,3,195,21,204,96,58,171,120,108,216,141,179,157,81,60,51,79,153,190,56,142,133,220,25,26,154,129,89,20,202,221,55,201,23,104,105,10,85,57,147,138,172,218,76,174,1,69,151,121,112,113,158,213,173,163,38,73,24,122,208,180,135,72,206,48,207,136,31,126,22,82,62,59,2,19,209,177,49,8,27,6,0,156,134,159,68,187,53,52,65,148,131,114,203,16,18,222,110,227,32,152,100,106,161,162,70,71,139,7,35,34,214,116,115,74,168,80,44,75,119,219,5,145,170,169,88,165,61,36,93,95,90,67,63,64,50,83,78,196,123,84,124,127,102,186,185,223,149,224,43,4
